auto-dp/workflow/scripts/PACE2017-TrackA/RF03160.td
decompose n = 190
decomposeConnected: n = 190
greedy decomposition (fill) obtained with 184 bags and width 5
166 safe separators found 
the decomposition packed into 167 bags, separatorWidth = 2, max bag size = 24
greedy decomposition (defect) obtained with 185 bags and width 5
166 safe separators found 
the decomposition packed into 167 bags, separatorWidth = 2, max bag size = 24
greedy decomposition (degree) obtained with 185 bags and width 5
166 safe separators found 
the decomposition packed into 167 bags, separatorWidth = 2, max bag size = 24
flattening
the decomposition flattened into 185 bags
s td 185 6 190
b 1 100 102
b 2 1 100 103
b 3 99 100 103
b 4 3 4 190
b 5 4 5 190
b 6 5 6 190
b 7 6 7 190
b 8 16 17 18
b 9 16 18 19
b 10 21 22 23
b 11 21 23 25
b 12 26 27 28
b 13 26 28 29
b 14 31 32 33
b 15 31 33 34
b 16 31 34 36
b 17 31 36 37
b 18 31 37 38
b 19 31 38 39
b 20 31 39 40
b 21 31 40 41
b 22 31 41 42
b 23 31 42 43
b 24 31 43 44
b 25 31 44 45
b 26 31 45 47
b 27 31 47 48
b 28 31 48 49
b 29 31 49 50
b 30 31 50 51
b 31 31 51 52
b 32 31 52 53
b 33 31 53 54
b 34 31 54 55
b 35 31 55 56
b 36 31 56 58
b 37 31 58 59
b 38 31 59 60
b 39 31 60 61
b 40 31 61 62
b 41 31 62 63
b 42 31 63 64
b 43 31 64 65
b 44 31 65 66
b 45 31 66 67
b 46 31 67 69
b 47 31 69 70
b 48 31 70 71
b 49 31 71 72
b 50 31 72 73
b 51 31 73 74
b 52 31 74 75
b 53 31 75 76
b 54 31 76 77
b 55 31 77 78
b 56 31 78 80
b 57 31 80 81
b 58 31 81 82
b 59 85 86 87
b 60 85 87 88
b 61 85 88 89
b 62 92 93 94
b 63 92 94 95
b 64 92 95 96
b 65 92 96 97
b 66 98 99 103
b 67 98 103 114
b 68 97 98 114
b 69 97 114 125
b 70 92 97 125
b 71 105 106 107
b 72 105 107 108
b 73 105 108 109
b 74 105 109 110
b 75 105 110 111
b 76 105 111 112
b 77 105 112 113
b 78 105 113 115
b 79 105 115 116
b 80 105 116 117
b 81 105 117 118
b 82 105 118 119
b 83 105 119 120
b 84 105 120 121
b 85 105 121 122
b 86 105 122 123
b 87 105 123 124
b 88 105 124 126
b 89 92 125 136
b 90 105 126 127
b 91 105 127 128
b 92 105 128 129
b 93 105 129 130
b 94 105 130 131
b 95 105 131 132
b 96 105 132 133
b 97 105 133 134
b 98 105 134 135
b 99 105 135 137
b 100 92 136 147
b 101 105 137 138
b 102 105 138 139
b 103 105 139 140
b 104 105 140 141
b 105 105 141 142
b 106 105 142 143
b 107 105 143 144
b 108 105 144 145
b 109 105 145 146
b 110 105 146 148
b 111 92 147 158
b 112 105 148 149
b 113 105 149 150
b 114 105 150 151
b 115 105 151 152
b 116 105 152 153
b 117 105 153 154
b 118 105 154 155
b 119 105 155 156
b 120 105 156 157
b 121 105 157 159
b 122 92 158 169
b 123 105 159 160
b 124 105 160 161
b 125 105 161 162
b 126 105 162 163
b 127 105 163 164
b 128 105 164 165
b 129 105 165 166
b 130 105 166 167
b 131 105 167 168
b 132 105 168 170
b 133 92 169 180
b 134 105 170 171
b 135 105 171 172
b 136 105 172 173
b 137 105 173 174
b 138 105 174 175
b 139 105 175 176
b 140 105 176 177
b 141 105 177 178
b 142 105 178 179
b 143 105 179 181
b 144 2 92 180
b 145 105 181 182
b 146 105 182 183
b 147 105 183 184
b 148 105 184 185
b 149 105 185 186
b 150 105 186 187
b 151 105 187 188
b 152 105 188 189
b 153 105 189 190
b 154 7 105 190
b 155 7 8 105
b 156 8 104 105
b 157 8 9 104
b 158 9 101 104
b 159 9 10 101
b 160 10 90 101
b 161 10 11 90
b 162 11 79 90
b 163 11 12 79
b 164 12 68 79
b 165 12 14 68
b 166 14 57 68
b 167 2 13 26 31 57 84
b 168 2 16 26 31 57 84
b 169 15 16 26 31 57
b 170 14 15 31 57
b 171 15 16 26 30 31
b 172 16 26 29 30
b 173 2 16 25 26 57 84
b 174 2 16 21 25 84
b 175 2 16 21 84 91
b 176 2 16 19 21 91
b 177 19 20 21 91
b 178 2 19 91 92
b 179 2 21 84 89 91
b 180 2 84 85 89
b 181 13 26 31 35 57 84
b 182 13 31 35 83 84
b 183 13 24 35 83
b 184 31 35 82 83
b 185 26 35 46 57
1 3
2 3
3 66
4 5
5 6
6 7
7 154
8 9
9 176
10 11
11 174
12 13
13 172
14 15
15 16
16 17
17 18
18 19
19 20
20 21
21 22
22 23
23 24
24 25
25 26
26 27
27 28
28 29
29 30
30 31
31 32
32 33
33 34
34 35
35 36
36 37
37 38
38 39
39 40
40 41
41 42
42 43
43 44
44 45
45 46
46 47
47 48
48 49
49 50
50 51
51 52
52 53
53 54
54 55
55 56
56 57
57 58
58 184
59 60
60 61
61 180
62 63
63 64
64 65
65 70
66 67
67 68
68 69
69 70
70 89
71 72
72 73
73 74
74 75
75 76
76 77
77 78
78 79
79 80
80 81
81 82
82 83
83 84
84 85
85 86
86 87
87 88
88 90
89 100
90 91
91 92
92 93
93 94
94 95
95 96
96 97
97 98
98 99
99 101
100 111
101 102
102 103
103 104
104 105
105 106
106 107
107 108
108 109
109 110
110 112
111 122
112 113
113 114
114 115
115 116
116 117
117 118
118 119
119 120
120 121
121 123
122 133
123 124
124 125
125 126
126 127
127 128
128 129
129 130
130 131
131 132
132 134
133 144
134 135
135 136
136 137
137 138
138 139
139 140
140 141
141 142
142 143
143 145
144 178
145 146
146 147
147 148
148 149
149 150
150 151
151 152
152 153
153 154
154 155
155 156
156 157
157 158
158 159
159 160
160 161
161 162
162 163
163 164
164 165
165 166
166 170
167 168
167 181
168 169
168 173
169 170
169 171
171 172
173 174
174 175
175 176
175 179
176 177
176 178
179 180
181 182
181 185
182 183
182 184
