code_generation/auto-dp/workflow/scripts/PACE2017-TrackA/RF03160.gr
p tw 190 211
1 100
1 103
2 13
2 85
2 180
3 4
3 190
4 5
5 6
6 7
7 8
7 105
8 9
8 104
9 10
9 101
10 11
10 90
11 12
11 79
12 14
12 68
13 24
13 84
14 15
14 31
15 16
15 30
16 17
16 29
17 18
18 19
19 20
19 92
20 21
20 91
21 22
21 89
22 23
23 25
24 35
24 83
25 26
25 57
26 27
26 46
27 28
28 29
29 30
30 31
31 32
32 33
33 34
34 36
35 46
35 82
36 37
37 38
38 39
39 40
40 41
41 42
42 43
43 44
44 45
45 47
46 57
47 48
48 49
49 50
50 51
51 52
52 53
53 54
54 55
55 56
56 58
57 68
58 59
59 60
60 61
61 62
62 63
63 64
64 65
65 66
66 67
67 69
68 79
69 70
70 71
71 72
72 73
73 74
74 75
75 76
76 77
77 78
78 80
79 90
80 81
81 82
82 83
83 84
84 85
85 86
86 87
87 88
88 89
89 91
90 101
91 92
92 93
93 94
94 95
95 96
96 97
97 98
97 125
98 99
98 114
99 100
99 103
100 102
101 104
103 114
104 105
105 106
106 107
107 108
108 109
109 110
110 111
111 112
112 113
113 115
114 125
115 116
116 117
117 118
118 119
119 120
120 121
121 122
122 123
123 124
124 126
125 136
126 127
127 128
128 129
129 130
130 131
131 132
132 133
133 134
134 135
135 137
136 147
137 138
138 139
139 140
140 141
141 142
142 143
143 144
144 145
145 146
146 148
147 158
148 149
149 150
150 151
151 152
152 153
153 154
154 155
155 156
156 157
157 159
158 169
159 160
160 161
161 162
162 163
163 164
164 165
165 166
166 167
167 168
168 170
169 180
170 171
171 172
172 173
173 174
174 175
175 176
176 177
177 178
178 179
179 181
181 182
182 183
183 184
184 185
185 186
186 187
187 188
188 189
189 190
